WARNING: for repeatability, setting FPU to use double precision
============================[ Problem Statistics ]=============================
|                                                                             |
|  Number of variables:         14399                                         |
|  Number of clauses:          253409                                         |
|  Parse time:                   0.08 s                                       |
|  Eliminated clauses:           0.00 Mb                                      |
|  Simplification time:          0.07 s                                       |
|                                                                             |
============================[ Search Statistics ]==============================
| Conflicts |          ORIGINAL         |          LEARNT          | Progress |
|           |    Vars  Clauses Literals |    Limit  Clauses Lit/Cl |          |
===============================================================================
===============================================================================
restarts              : 1
conflicts             : 28             (187 /sec)
decisions             : 247            (0.00 % random) (1653 /sec)
propagations          : 18277          (122332 /sec)
conflict literals     : 4858           (0.35 % deleted)
Memory used           : 35.00 MB
CPU time              : 0.149405 s

SATISFIABLE
